27 69 31 88 62 10 63 90 32 30 70 1 
28 12 76 50 33 81 9 51 20 66 65 71 35 34 78 79 3 77 
6 95 99 59 98 85 61 16 86 38 44 14 42 43 15 57 2 87 97 92 37 100 91 93 96 94 13 58 
52 18 83 46 47 36 49 64 11 19 48 7 82 8 45 17 84 5 60 89 
53 40 21 73 41 22 75 23 67 39 25 55 24 29 68 80 54 4 56 74 72 26 
